Nodes = {"Gdansk", "Bydgoszcz", "Kolobrzeg", "Katowice", "Krakow", "Bialystok", "Lodz", "Poznan", "Rzeszow", "Szczecin", "Warsaw", "Wroclaw"};
Arcs = {<"Gdansk","Bydgoszcz",36,1>, <"Gdansk","Kolobrzeg",36,0>, <"Gdansk","Katowice",36,4>, <"Gdansk","Krakow",36,4>, <"Gdansk","Bialystok",36,0>, <"Gdansk","Lodz",36,3>, <"Gdansk","Poznan",36,3>, <"Gdansk","Rzeszow",36,5>, <"Gdansk","Szczecin",36,4>, <"Gdansk","Warsaw",36,0>, <"Gdansk","Wroclaw",36,4>, <"Bydgoszcz","Gdansk",36,1>, <"Bydgoszcz","Kolobrzeg",36,0>, <"Bydgoszcz","Katowice",36,3>, <"Bydgoszcz","Krakow",36,4>, <"Bydgoszcz","Bialystok",36,5>, <"Bydgoszcz","Lodz",36,2>, <"Bydgoszcz","Poznan",36,0>, <"Bydgoszcz","Rzeszow",36,5>, <"Bydgoszcz","Szczecin",36,3>, <"Bydgoszcz","Warsaw",36,0>, <"Bydgoszcz","Wroclaw",36,2>, <"Kolobrzeg","Gdansk",36,0>, <"Kolobrzeg","Bydgoszcz",36,0>, <"Kolobrzeg","Katowice",36,5>, <"Kolobrzeg","Krakow",36,6>, <"Kolobrzeg","Bialystok",36,7>, <"Kolobrzeg","Lodz",36,4>, <"Kolobrzeg","Poznan",36,2>, <"Kolobrzeg","Rzeszow",36,7>, <"Kolobrzeg","Szczecin",36,0>, <"Kolobrzeg","Warsaw",36,5>, <"Kolobrzeg","Wroclaw",36,3>, <"Katowice","Gdansk",36,4>, <"Katowice","Bydgoszcz",36,3>, <"Katowice","Kolobrzeg",36,5>, <"Katowice","Krakow",36,0>, <"Katowice","Bialystok",36,5>, <"Katowice","Lodz",36,0>, <"Katowice","Poznan",36,3>, <"Katowice","Rzeszow",36,3>, <"Katowice","Szczecin",36,5>, <"Katowice","Warsaw",36,3>, <"Katowice","Wroclaw",36,0>, <"Krakow","Gdansk",36,4>, <"Krakow","Bydgoszcz",36,4>, <"Krakow","Kolobrzeg",36,6>, <"Krakow","Katowice",36,0>, <"Krakow","Bialystok",36,5>, <"Krakow","Lodz",36,2>, <"Krakow","Poznan",36,4>, <"Krakow","Rzeszow",36,0>, <"Krakow","Szczecin",36,6>, <"Krakow","Warsaw",36,0>, <"Krakow","Wroclaw",36,3>, <"Bialystok","Gdansk",36,0>, <"Bialystok","Bydgoszcz",36,5>, <"Bialystok","Kolobrzeg",36,7>, <"Bialystok","Katowice",36,5>, <"Bialystok","Krakow",36,5>, <"Bialystok","Lodz",36,4>, <"Bialystok","Poznan",36,6>, <"Bialystok","Rzeszow",36,0>, <"Bialystok","Szczecin",36,9>, <"Bialystok","Warsaw",36,0>, <"Bialystok","Wroclaw",36,7>, <"Lodz","Gdansk",36,3>, <"Lodz","Bydgoszcz",36,2>, <"Lodz","Kolobrzeg",36,4>, <"Lodz","Katowice",36,0>, <"Lodz","Krakow",36,2>, <"Lodz","Bialystok",36,4>, <"Lodz","Poznan",36,3>, <"Lodz","Rzeszow",36,3>, <"Lodz","Szczecin",36,5>, <"Lodz","Warsaw",36,0>, <"Lodz","Wroclaw",36,0>, <"Poznan","Gdansk",36,3>, <"Poznan","Bydgoszcz",36,0>, <"Poznan","Kolobrzeg",36,2>, <"Poznan","Katowice",36,3>, <"Poznan","Krakow",36,4>, <"Poznan","Bialystok",36,6>, <"Poznan","Lodz",36,3>, <"Poznan","Rzeszow",36,6>, <"Poznan","Szczecin",36,0>, <"Poznan","Warsaw",36,4>, <"Poznan","Wroclaw",36,0>, <"Rzeszow","Gdansk",36,5>, <"Rzeszow","Bydgoszcz",36,5>, <"Rzeszow","Kolobrzeg",36,7>, <"Rzeszow","Katowice",36,3>, <"Rzeszow","Krakow",36,0>, <"Rzeszow","Bialystok",36,0>, <"Rzeszow","Lodz",36,3>, <"Rzeszow","Poznan",36,6>, <"Rzeszow","Szczecin",36,8>, <"Rzeszow","Warsaw",36,2>, <"Rzeszow","Wroclaw",36,5>, <"Szczecin","Gdansk",36,4>, <"Szczecin","Bydgoszcz",36,3>, <"Szczecin","Kolobrzeg",36,0>, <"Szczecin","Katowice",36,5>, <"Szczecin","Krakow",36,6>, <"Szczecin","Bialystok",36,9>, <"Szczecin","Lodz",36,5>, <"Szczecin","Poznan",36,0>, <"Szczecin","Rzeszow",36,8>, <"Szczecin","Warsaw",36,7>, <"Szczecin","Wroclaw",36,3>, <"Warsaw","Gdansk",36,0>, <"Warsaw","Bydgoszcz",36,0>, <"Warsaw","Kolobrzeg",36,5>, <"Warsaw","Katowice",36,3>, <"Warsaw","Krakow",36,0>, <"Warsaw","Bialystok",36,0>, <"Warsaw","Lodz",36,0>, <"Warsaw","Poznan",36,4>, <"Warsaw","Rzeszow",36,2>, <"Warsaw","Szczecin",36,7>, <"Warsaw","Wroclaw",36,4>, <"Wroclaw","Gdansk",36,4>, <"Wroclaw","Bydgoszcz",36,2>, <"Wroclaw","Kolobrzeg",36,3>, <"Wroclaw","Katowice",36,0>, <"Wroclaw","Krakow",36,3>, <"Wroclaw","Bialystok",36,7>, <"Wroclaw","Lodz",36,0>, <"Wroclaw","Poznan",36,0>, <"Wroclaw","Rzeszow",36,5>, <"Wroclaw","Szczecin",36,3>, <"Wroclaw","Warsaw",36,4>};
Demands = {<"Gdansk","Bydgoszcz",2,0>, <"Gdansk","Kolobrzeg",4,0>, <"Gdansk","Katowice",6,0>, <"Gdansk","Krakow",8,0>, <"Gdansk","Bialystok",10,0>, <"Gdansk","Lodz",12,0>, <"Gdansk","Poznan",14,0>, <"Gdansk","Rzeszow",16,0>, <"Gdansk","Szczecin",18,0>, <"Gdansk","Warsaw",20,0>, <"Gdansk","Wroclaw",22,0>, <"Bydgoszcz","Gdansk",2,0>, <"Bydgoszcz","Kolobrzeg",2,0>, <"Bydgoszcz","Katowice",4,0>, <"Bydgoszcz","Krakow",6,0>, <"Bydgoszcz","Bialystok",8,0>, <"Bydgoszcz","Lodz",10,0>, <"Bydgoszcz","Poznan",12,0>, <"Bydgoszcz","Rzeszow",14,0>, <"Bydgoszcz","Szczecin",16,0>, <"Bydgoszcz","Warsaw",18,0>, <"Bydgoszcz","Wroclaw",20,0>, <"Kolobrzeg","Gdansk",4,0>, <"Kolobrzeg","Bydgoszcz",2,0>, <"Kolobrzeg","Katowice",2,0>, <"Kolobrzeg","Krakow",4,0>, <"Kolobrzeg","Bialystok",6,0>, <"Kolobrzeg","Lodz",8,0>, <"Kolobrzeg","Poznan",10,0>, <"Kolobrzeg","Rzeszow",12,0>, <"Kolobrzeg","Szczecin",14,0>, <"Kolobrzeg","Warsaw",16,0>, <"Kolobrzeg","Wroclaw",18,0>, <"Katowice","Gdansk",6,0>, <"Katowice","Bydgoszcz",4,0>, <"Katowice","Kolobrzeg",2,0>, <"Katowice","Krakow",2,0>, <"Katowice","Bialystok",4,0>, <"Katowice","Lodz",6,0>, <"Katowice","Poznan",8,0>, <"Katowice","Rzeszow",10,0>, <"Katowice","Szczecin",12,0>, <"Katowice","Warsaw",14,0>, <"Katowice","Wroclaw",16,0>, <"Krakow","Gdansk",8,0>, <"Krakow","Bydgoszcz",6,0>, <"Krakow","Kolobrzeg",4,0>, <"Krakow","Katowice",2,0>, <"Krakow","Bialystok",2,0>, <"Krakow","Lodz",4,0>, <"Krakow","Poznan",6,0>, <"Krakow","Rzeszow",8,0>, <"Krakow","Szczecin",10,0>, <"Krakow","Warsaw",12,0>, <"Krakow","Wroclaw",14,0>, <"Bialystok","Gdansk",10,0>, <"Bialystok","Bydgoszcz",8,0>, <"Bialystok","Kolobrzeg",6,0>, <"Bialystok","Katowice",4,0>, <"Bialystok","Krakow",2,0>, <"Bialystok","Lodz",2,0>, <"Bialystok","Poznan",4,0>, <"Bialystok","Rzeszow",6,0>, <"Bialystok","Szczecin",8,0>, <"Bialystok","Warsaw",10,0>, <"Bialystok","Wroclaw",12,0>, <"Lodz","Gdansk",12,0>, <"Lodz","Bydgoszcz",10,0>, <"Lodz","Kolobrzeg",8,0>, <"Lodz","Katowice",6,0>, <"Lodz","Krakow",4,0>, <"Lodz","Bialystok",2,0>, <"Lodz","Poznan",2,0>, <"Lodz","Rzeszow",4,0>, <"Lodz","Szczecin",6,0>, <"Lodz","Warsaw",8,0>, <"Lodz","Wroclaw",10,0>, <"Poznan","Gdansk",14,0>, <"Poznan","Bydgoszcz",12,0>, <"Poznan","Kolobrzeg",10,0>, <"Poznan","Katowice",8,0>, <"Poznan","Krakow",6,0>, <"Poznan","Bialystok",4,0>, <"Poznan","Lodz",2,0>, <"Poznan","Rzeszow",2,0>, <"Poznan","Szczecin",4,0>, <"Poznan","Warsaw",6,0>, <"Poznan","Wroclaw",8,0>, <"Rzeszow","Gdansk",16,0>, <"Rzeszow","Bydgoszcz",14,0>, <"Rzeszow","Kolobrzeg",12,0>, <"Rzeszow","Katowice",10,0>, <"Rzeszow","Krakow",8,0>, <"Rzeszow","Bialystok",6,0>, <"Rzeszow","Lodz",4,0>, <"Rzeszow","Poznan",2,0>, <"Rzeszow","Szczecin",2,0>, <"Rzeszow","Warsaw",4,0>, <"Rzeszow","Wroclaw",6,0>, <"Szczecin","Gdansk",18,0>, <"Szczecin","Bydgoszcz",16,0>, <"Szczecin","Kolobrzeg",14,0>, <"Szczecin","Katowice",12,0>, <"Szczecin","Krakow",10,0>, <"Szczecin","Bialystok",8,0>, <"Szczecin","Lodz",6,0>, <"Szczecin","Poznan",4,0>, <"Szczecin","Rzeszow",2,0>, <"Szczecin","Warsaw",2,0>, <"Szczecin","Wroclaw",4,0>, <"Warsaw","Gdansk",20,0>, <"Warsaw","Bydgoszcz",18,0>, <"Warsaw","Kolobrzeg",16,0>, <"Warsaw","Katowice",14,0>, <"Warsaw","Krakow",12,0>, <"Warsaw","Bialystok",10,0>, <"Warsaw","Lodz",8,0>, <"Warsaw","Poznan",6,0>, <"Warsaw","Rzeszow",4,0>, <"Warsaw","Szczecin",2,0>, <"Warsaw","Wroclaw",2,0>, <"Wroclaw","Gdansk",22,0>, <"Wroclaw","Bydgoszcz",20,0>, <"Wroclaw","Kolobrzeg",18,0>, <"Wroclaw","Katowice",16,0>, <"Wroclaw","Krakow",14,0>, <"Wroclaw","Bialystok",12,0>, <"Wroclaw","Lodz",10,0>, <"Wroclaw","Poznan",8,0>, <"Wroclaw","Rzeszow",6,0>, <"Wroclaw","Szczecin",4,0>, <"Wroclaw","Warsaw",2,0>};
